n = 5;
max_selecciones = 3;
matriz1 = [|6, 8, 4, 2, 7, 
           |3, 9, 1, 6, 5, 
           |4, 7, 2, 8, 3, 
           |1, 4, 6, 9, 2, 
           |5, 2, 3, 7, 4|];
           
matriz2 = [|3, 5, 7, 1, 4, 
           |2, 6, 8, 9, 3, 
           |5, 7, 2, 4, 8, 
           |6, 3, 1, 7, 5, 
           |8, 9, 4, 2, 6|];
           
preseleccionadas = [|0, 0, 0, 0, 0, 
                    |0, 0, 0, 0, 1, 
                    |0, 0, 0, 0, 0, 
                    |0, 0, 0, 0, 0, 
                    |0, 0, 0, 0, 0|];
